c Result of efficient AIG-to-CNF conversion using package CNF
p cnf 658 2419
2 626 -537 0
2 626 -3 0
2 626 -559 0
-2 -626 0
-2 3 537 559 0
-3 4 289 318 420 0
3 -4 0
3 -420 0
3 -318 0
3 -289 0
4 653 5 -247 0
4 5 146 -247 0
-4 247 0
-4 -5 0
-4 -653 -146 0
-5 -655 6 85 0
-5 655 69 85 0
5 -85 0
5 655 -69 0
5 -655 -6 0
6 656 -7 0
6 -656 -50 0
-6 -656 50 0
-6 656 7 0
7 657 -8 0
7 -657 -38 0
-7 -657 38 0
-7 657 8 0
8 -616 9 -28 0
-8 616 0
-8 -9 0
-8 28 0
-9 626 10 0
9 -626 0
9 -10 0
-10 11 20 0
10 -11 0
10 -20 0
-11 12 14 19 0
11 -12 0
11 -14 0
11 -19 0
-12 629 630 13 0
12 -13 0
12 -630 0
12 -629 0
-13 627 628 0
13 -627 0
13 -628 0
-14 15 17 0
14 -15 0
14 -17 0
-15 631 634 16 0
15 -16 0
15 -634 0
15 -631 0
-16 632 633 0
16 -632 0
16 -633 0
-17 637 638 18 0
17 -18 0
17 -638 0
17 -637 0
-18 635 636 0
18 -635 0
18 -636 0
-19 639 640 641 0
19 -639 0
19 -641 0
19 -640 0
-20 21 23 0
20 -21 0
20 -23 0
-21 642 643 22 0
21 -22 0
21 -643 0
21 -642 0
-22 644 645 0
22 -644 0
22 -645 0
-23 24 26 0
23 -24 0
23 -26 0
-24 648 649 650 25 0
24 -25 0
24 -650 0
24 -648 0
24 -649 0
-25 646 647 0
25 -646 0
25 -647 0
-26 653 27 0
26 -653 0
26 -27 0
-27 651 652 0
27 -651 0
27 -652 0
28 654 -29 0
28 -654 -36 0
-28 -654 36 0
-28 654 29 0
29 655 -30 0
29 -655 -33 0
-29 -655 33 0
-29 655 30 0
30 656 -31 0
30 -656 -32 0
-30 -656 32 0
-30 656 31 0
31 -617 -657 0
31 -616 657 0
-31 616 657 0
-31 617 -657 0
32 -619 -657 0
32 -618 657 0
-32 618 657 0
-32 619 -657 0
33 656 -34 0
33 -656 -35 0
-33 -656 35 0
-33 656 34 0
34 -621 -657 0
34 -620 657 0
-34 620 657 0
-34 621 -657 0
35 -623 -657 0
35 -622 657 0
-35 622 657 0
-35 623 -657 0
36 655 -37 0
-36 -655 0
-36 37 0
37 -624 656 657 0
37 -625 656 -657 0
-37 -656 0
-37 625 -657 0
-37 624 657 0
38 -615 9 -39 0
-38 615 0
-38 -9 0
-38 39 0
39 654 -40 0
39 -654 -47 0
-39 -654 47 0
-39 654 40 0
40 655 -41 0
40 -655 -44 0
-40 -655 44 0
-40 655 41 0
41 656 -42 0
41 -656 -43 0
-41 -656 43 0
-41 656 42 0
42 -616 -657 0
42 -615 657 0
-42 615 657 0
-42 616 -657 0
43 -618 -657 0
43 -617 657 0
-43 617 657 0
-43 618 -657 0
44 656 -45 0
44 -656 -46 0
-44 -656 46 0
-44 656 45 0
45 -620 -657 0
45 -619 657 0
-45 619 657 0
-45 620 -657 0
46 -622 -657 0
46 -621 657 0
-46 621 657 0
-46 622 -657 0
47 655 -48 0
-47 -655 0
-47 48 0
48 656 -49 0
48 -625 -656 657 0
-48 625 -656 0
-48 656 49 0
-48 -656 -657 0
-49 623 657 0
-49 624 -657 0
49 -624 -657 0
49 -623 657 0
50 657 -51 0
50 -657 -60 0
-50 -657 60 0
-50 657 51 0
51 -614 9 -52 0
-51 614 0
-51 -9 0
-51 52 0
52 654 -53 0
52 -654 -57 0
-52 -654 57 0
-52 654 53 0
53 655 -54 0
53 -655 -56 0
-53 -655 56 0
-53 655 54 0
54 -656 -31 0
54 656 -55 0
-54 656 55 0
-54 -656 31 0
55 -615 -657 0
55 -614 657 0
-55 614 657 0
-55 615 -657 0
56 656 -32 0
56 -656 -34 0
-56 -656 34 0
-56 656 32 0
57 655 -58 0
-57 -655 0
-57 58 0
58 656 -35 0
58 -656 -59 0
-58 -656 59 0
-58 656 35 0
-59 624 657 0
-59 625 -657 0
59 -625 -657 0
59 -624 657 0
60 -613 9 -61 0
-60 613 0
-60 -9 0
-60 61 0
61 654 -62 0
61 -654 -66 0
-61 -654 66 0
-61 654 62 0
62 655 -63 0
62 -655 -65 0
-62 -655 65 0
-62 655 63 0
63 -656 -42 0
63 656 -64 0
-63 656 64 0
-63 -656 42 0
64 -614 -657 0
64 -613 657 0
-64 613 657 0
-64 614 -657 0
65 656 -43 0
65 -656 -45 0
-65 -656 45 0
-65 656 43 0
66 655 -68 0
66 -655 656 -67 0
-66 -655 -656 0
-66 655 68 0
-66 -655 67 0
67 -625 657 0
-67 625 0
-67 -657 0
68 656 -46 0
68 -656 -49 0
-68 -656 49 0
-68 656 46 0
69 656 -70 0
69 -656 -77 0
-69 -656 77 0
-69 656 70 0
70 657 -71 0
70 -657 -74 0
-70 -657 74 0
-70 657 71 0
71 -620 9 -72 0
-71 620 0
-71 -9 0
-71 72 0
72 654 -73 0
-72 -654 0
-72 73 0
73 655 -33 0
73 -655 -37 0
-73 -655 37 0
-73 655 33 0
74 -619 9 -75 0
-74 619 0
-74 -9 0
-74 75 0
75 654 -76 0
-75 -654 0
-75 76 0
76 655 -44 0
76 -655 -48 0
-76 -655 48 0
-76 655 44 0
77 657 -78 0
77 -657 -81 0
-77 -657 81 0
-77 657 78 0
78 -618 9 -79 0
-78 618 0
-78 -9 0
-78 79 0
79 654 -80 0
-79 -654 0
-79 80 0
80 655 -56 0
80 -655 -58 0
-80 -655 58 0
-80 655 56 0
81 -617 9 -82 0
-81 617 0
-81 -9 0
-81 82 0
82 654 -83 0
82 -654 -84 0
-82 -654 84 0
-82 654 83 0
83 655 -65 0
83 -655 -68 0
-83 -655 68 0
-83 655 65 0
84 -625 655 656 657 0
-84 -657 0
-84 -656 0
-84 625 0
-84 -655 0
85 -654 -86 0
-85 654 0
-85 86 0
86 655 -87 0
86 -655 -115 0
-86 -655 115 0
-86 655 87 0
87 656 -88 0
87 -656 -99 0
-87 -656 99 0
-87 656 88 0
88 657 -89 0
88 -657 -94 0
-88 -657 94 0
-88 657 89 0
89 -612 9 -90 0
-89 612 0
-89 -9 0
-89 90 0
90 -654 -73 0
90 654 -91 0
-90 654 91 0
-90 -654 73 0
91 -655 -30 0
91 655 -92 0
-91 655 92 0
-91 -655 30 0
92 -656 -55 0
92 656 -93 0
-92 656 93 0
-92 -656 55 0
93 -613 -657 0
93 -612 657 0
-93 612 657 0
-93 613 -657 0
94 -611 9 -95 0
-94 611 0
-94 -9 0
-94 95 0
95 -654 -76 0
95 654 -96 0
-95 654 96 0
-95 -654 76 0
96 -655 -41 0
96 655 -97 0
-96 655 97 0
-96 -655 41 0
97 -656 -64 0
97 656 -98 0
-97 656 98 0
-97 -656 64 0
98 -612 -657 0
98 -611 657 0
-98 611 657 0
-98 612 -657 0
99 657 -100 0
99 -657 -105 0
-99 -657 105 0
-99 657 100 0
100 -610 9 -101 0
-100 610 0
-100 -9 0
-100 101 0
101 -654 -80 0
101 654 -102 0
-101 654 102 0
-101 -654 80 0
102 -655 -54 0
102 655 -103 0
-102 655 103 0
-102 -655 54 0
103 -656 -93 0
103 656 -104 0
-103 656 104 0
-103 -656 93 0
104 -611 -657 0
104 -610 657 0
-104 610 657 0
-104 611 -657 0
105 -609 626 106 -109 0
-105 -106 0
-105 109 0
-105 609 0
-105 -626 0
-106 11 107 0
106 -11 0
106 -107 0
-107 650 21 27 108 0
107 -650 0
107 -108 0
107 -27 0
107 -21 0
-108 646 647 648 649 0
108 -649 0
108 -648 0
108 -646 0
108 -647 0
-109 653 110 0
-109 -653 114 0
109 -653 -114 0
109 653 -110 0
-110 654 111 0
-110 -654 83 0
110 -654 -83 0
110 654 -111 0
111 -655 -63 0
111 655 -112 0
-111 655 112 0
-111 -655 63 0
112 -656 -98 0
112 656 -113 0
-112 656 113 0
-112 -656 98 0
113 -610 -657 0
113 -609 657 0
-113 609 657 0
-113 610 -657 0
114 654 -84 0
-114 -654 0
-114 84 0
115 656 -116 0
115 -656 -131 0
-115 -656 131 0
-115 656 116 0
116 657 -117 0
116 -657 -124 0
-116 -657 124 0
-116 657 117 0
117 -608 626 -118 122 0
-117 -122 0
-117 118 0
-117 608 0
-117 -626 0
-118 653 -654 29 0
-118 653 654 119 0
118 -653 0
118 -654 -29 0
118 654 -119 0
119 -655 -92 0
119 655 -120 0
-119 655 120 0
-119 -655 92 0
120 -656 -104 0
120 656 -121 0
-120 656 121 0
-120 -656 104 0
121 -609 -657 0
121 -608 657 0
-121 608 657 0
-121 609 -657 0
-122 653 106 0
-122 106 -123 0
122 -106 0
122 -653 123 0
123 654 -36 0
-123 -654 0
-123 36 0
124 -607 626 106 -125 0
-124 -106 0
-124 125 0
-124 607 0
-124 -626 0
-125 653 126 0
-125 -653 130 0
125 -653 -130 0
125 653 -126 0
-126 654 127 0
-126 -654 40 0
126 -654 -40 0
126 654 -127 0
127 -655 -97 0
127 655 -128 0
-127 655 128 0
-127 -655 97 0
128 -656 -113 0
128 656 -129 0
-128 656 129 0
-128 -656 113 0
129 -608 -657 0
129 -607 657 0
-129 607 657 0
-129 608 -657 0
130 654 -47 0
-130 -654 0
-130 47 0
131 657 -132 0
131 -657 -139 0
-131 -657 139 0
-131 657 132 0
132 -606 626 106 -133 0
-132 -106 0
-132 133 0
-132 606 0
-132 -626 0
-133 653 134 0
-133 -653 138 0
133 -653 -138 0
133 653 -134 0
-134 654 135 0
-134 -654 53 0
134 -654 -53 0
134 654 -135 0
135 -655 -103 0
135 655 -136 0
-135 655 136 0
-135 -655 103 0
136 -656 -121 0
136 656 -137 0
-136 656 137 0
-136 -656 121 0
137 -607 -657 0
137 -606 657 0
-137 606 657 0
-137 607 -657 0
138 654 -57 0
-138 -654 0
-138 57 0
139 -605 626 106 -140 0
-139 -106 0
-139 140 0
-139 605 0
-139 -626 0
-140 653 141 0
-140 -653 145 0
140 -653 -145 0
140 653 -141 0
-141 654 142 0
-141 -654 62 0
141 -654 -62 0
141 654 -142 0
142 -655 -112 0
142 655 -143 0
-142 655 143 0
-142 -655 112 0
143 -656 -129 0
143 656 -144 0
-143 656 144 0
-143 -656 129 0
144 -606 -657 0
144 -605 657 0
-144 605 657 0
-144 606 -657 0
145 654 -66 0
-145 -654 0
-145 66 0
146 654 -147 0
146 -654 -225 0
-146 -654 225 0
-146 654 147 0
147 655 -148 0
147 -655 -175 0
-147 -655 175 0
-147 655 148 0
148 656 -149 0
148 -656 -162 0
-148 -656 162 0
-148 656 149 0
149 657 -150 0
149 -657 -156 0
-149 -657 156 0
-149 657 150 0
150 -604 626 106 -151 0
-150 -106 0
-150 151 0
-150 604 0
-150 -626 0
-151 -653 72 0
-151 653 152 0
151 -653 -72 0
151 653 -152 0
-152 654 153 0
-152 -654 91 0
152 -654 -91 0
152 654 -153 0
153 -655 -120 0
153 655 -154 0
-153 655 154 0
-153 -655 120 0
154 -656 -137 0
154 656 -155 0
-154 656 155 0
-154 -656 137 0
155 -605 -657 0
155 -604 657 0
-155 604 657 0
-155 605 -657 0
156 -603 626 106 -157 0
-156 -106 0
-156 157 0
-156 603 0
-156 -626 0
-157 -653 75 0
-157 653 158 0
157 -653 -75 0
157 653 -158 0
-158 654 159 0
-158 -654 96 0
158 -654 -96 0
158 654 -159 0
159 -655 -128 0
159 655 -160 0
-159 655 160 0
-159 -655 128 0
160 -656 -144 0
160 656 -161 0
-160 656 161 0
-160 -656 144 0
161 -604 -657 0
161 -603 657 0
-161 603 657 0
-161 604 -657 0
162 657 -163 0
162 -657 -169 0
-162 -657 169 0
-162 657 163 0
163 -602 626 106 -164 0
-163 -106 0
-163 164 0
-163 602 0
-163 -626 0
-164 -653 79 0
-164 653 165 0
164 -653 -79 0
164 653 -165 0
-165 654 166 0
-165 -654 102 0
165 -654 -102 0
165 654 -166 0
166 -655 -136 0
166 655 -167 0
-166 655 167 0
-166 -655 136 0
167 -656 -155 0
167 656 -168 0
-167 656 168 0
-167 -656 155 0
168 -603 -657 0
168 -602 657 0
-168 602 657 0
-168 603 -657 0
169 -601 626 -170 174 0
-169 -174 0
-169 170 0
-169 601 0
-169 -626 0
-170 653 -654 111 0
-170 653 654 171 0
170 -653 0
170 -654 -111 0
170 654 -171 0
171 -655 -143 0
171 655 -172 0
-171 655 172 0
-171 -655 143 0
172 -656 -161 0
172 656 -173 0
-172 656 173 0
-172 -656 161 0
173 -602 -657 0
173 -601 657 0
-173 601 657 0
-173 602 -657 0
-174 -82 106 0
-174 653 106 0
174 -106 0
174 -653 82 0
175 656 -176 0
175 -656 -201 0
-175 -656 201 0
-175 656 176 0
176 657 -177 0
176 -657 -190 0
-176 -657 190 0
-176 657 177 0
177 -653 -28 -182 0
177 653 -178 -182 0
-177 182 0
-177 -653 28 0
-177 653 178 0
178 -654 -119 0
178 654 -179 0
-178 654 179 0
-178 -654 119 0
179 -655 -154 0
179 655 -180 0
-179 655 180 0
-179 -655 154 0
180 -656 -168 0
180 656 -181 0
-180 656 181 0
-180 -656 168 0
181 -601 -657 0
181 -600 657 0
-181 600 657 0
-181 601 -657 0
182 183 184 186 -187 0
-182 187 0
-182 -183 0
-182 -186 0
-182 -184 0
-183 22 24 0
183 -22 0
183 -24 0
-184 18 185 0
184 -18 0
184 -185 0
-185 637 638 19 0
185 -19 0
185 -638 0
185 -637 0
-186 642 643 16 0
186 -16 0
186 -643 0
186 -642 0
187 -600 626 13 188 0
-187 -188 0
-187 600 0
-187 -13 0
-187 -626 0
-188 634 27 189 0
188 -189 0
188 -27 0
188 -634 0
-189 629 630 631 0
189 -629 0
189 -631 0
189 -630 0
190 -653 -39 -195 0
190 653 -191 -195 0
-190 195 0
-190 -653 39 0
-190 653 191 0
191 -654 -127 0
191 654 -192 0
-191 654 192 0
-191 -654 127 0
192 -655 -160 0
192 655 -193 0
-192 655 193 0
-192 -655 160 0
193 -656 -173 0
193 656 -194 0
-193 656 194 0
-193 -656 173 0
194 -600 -657 0
194 -599 657 0
-194 599 657 0
-194 600 -657 0
195 -599 626 196 198 0
-195 -198 0
-195 599 0
-195 -196 0
-195 -626 0
-196 27 197 0
196 -27 0
196 -197 0
-197 629 630 15 0
197 -15 0
197 -630 0
197 -629 0
-198 184 199 200 0
198 -184 0
198 -199 0
198 -200 0
-199 648 649 650 13 0
199 -13 0
199 -650 0
199 -648 0
199 -649 0
-200 646 647 21 0
200 -21 0
200 -647 0
200 -646 0
201 657 -202 0
201 -657 -215 0
-201 -657 215 0
-201 657 202 0
202 -653 -52 -207 0
202 653 -203 -207 0
-202 207 0
-202 -653 52 0
-202 653 203 0
203 -654 -135 0
203 654 -204 0
-203 654 204 0
-203 -654 135 0
204 -655 -167 0
204 655 -205 0
-204 655 205 0
-204 -655 167 0
205 -656 -181 0
205 656 -206 0
-205 656 206 0
-205 -656 181 0
206 -599 -657 0
206 -598 657 0
-206 598 657 0
-206 599 -657 0
207 208 209 210 -211 0
-207 211 0
-207 -208 0
-207 -210 0
-207 -209 0
-208 638 641 22 108 0
208 -638 0
208 -108 0
208 -22 0
208 -641 0
-209 13 16 0
209 -13 0
209 -16 0
-210 639 640 18 0
210 -18 0
210 -640 0
210 -639 0
211 626 212 189 -213 0
-211 -626 0
-211 213 0
-211 -189 0
-211 -212 0
-212 650 27 0
212 -650 0
212 -27 0
213 -598 634 637 214 0
-213 -214 0
-213 -637 0
-213 598 0
-213 -634 0
-214 642 643 0
214 -642 0
214 -643 0
215 -597 216 -220 0
-215 597 0
-215 -216 0
-215 220 0
-216 626 17 209 217 0
216 -626 0
216 -217 0
216 -209 0
216 -17 0
-217 188 218 219 0
217 -188 0
217 -218 0
217 -219 0
-218 643 183 0
218 -643 0
218 -183 0
-219 642 19 0
219 -642 0
219 -19 0
-220 -653 61 0
-220 653 221 0
220 -653 -61 0
220 653 -221 0
-221 -654 142 0
-221 654 222 0
221 -654 -142 0
221 654 -222 0
-222 -655 172 0
-222 655 223 0
222 -655 -172 0
222 655 -223 0
-223 656 224 0
-223 -656 194 0
223 -656 -194 0
223 656 -224 0
224 -598 -657 0
224 -597 657 0
-224 597 657 0
-224 598 -657 0
225 655 -226 0
-225 -655 0
-225 226 0
226 656 -227 0
226 -656 -240 0
-226 -656 240 0
-226 656 227 0
227 657 -228 0
227 -657 -234 0
-227 -657 234 0
-227 657 228 0
228 -653 -90 -233 0
228 653 -229 -233 0
-228 233 0
-228 -653 90 0
-228 653 229 0
229 -654 -153 0
229 654 -230 0
-229 654 230 0
-229 -654 153 0
230 -655 -180 0
230 655 -231 0
-230 655 231 0
-230 -655 180 0
231 -656 -206 0
231 656 -232 0
-231 656 232 0
-231 -656 206 0
232 -597 -657 0
232 -596 657 0
-232 596 657 0
-232 597 -657 0
233 -596 216 0
-233 596 0
-233 -216 0
234 -653 -95 -239 0
234 653 -235 -239 0
-234 239 0
-234 -653 95 0
-234 653 235 0
235 -654 -159 0
235 654 -236 0
-235 654 236 0
-235 -654 159 0
236 -655 -193 0
236 655 -237 0
-236 655 237 0
-236 -655 193 0
237 -656 -224 0
237 656 -238 0
-237 656 238 0
-237 -656 224 0
238 -596 -657 0
238 -595 657 0
-238 595 657 0
-238 596 -657 0
239 -595 216 0
-239 595 0
-239 -216 0
240 657 -241 0
-240 -657 0
-240 241 0
241 -653 -101 -246 0
241 653 -242 -246 0
-241 246 0
-241 -653 101 0
-241 653 242 0
242 -654 -166 0
242 654 -243 0
-242 654 243 0
-242 -654 166 0
243 -655 -205 0
243 655 -244 0
-243 655 244 0
-243 -655 205 0
244 -656 -232 0
244 656 -245 0
-244 656 245 0
-244 -656 232 0
245 -595 -657 0
245 -594 657 0
-245 594 657 0
-245 595 -657 0
246 -594 216 0
-246 594 0
-246 -216 0
247 -620 107 -248 271 0
-247 -271 0
-247 620 0
-247 -107 0
-247 248 0
-248 653 -654 260 0
-248 653 654 249 0
248 -653 0
248 -654 -260 0
248 654 -249 0
249 655 -250 0
249 -655 -255 0
-249 -655 255 0
-249 655 250 0
250 656 -251 0
250 -656 -253 0
-250 -656 253 0
-250 656 251 0
251 657 -252 0
251 -619 -657 0
251 -651 -657 0
-251 657 252 0
-251 619 651 -657 0
-252 620 652 0
252 -620 0
252 -652 0
253 -650 657 0
253 -657 -254 0
253 -618 657 0
-253 -657 254 0
-253 618 650 657 0
-254 617 649 0
254 -617 0
254 -649 0
255 656 -256 0
255 -656 -258 0
-255 -656 258 0
-255 656 256 0
256 657 -257 0
256 -615 -657 0
256 -647 -657 0
-256 657 257 0
-256 615 647 -657 0
-257 616 648 0
257 -616 0
257 -648 0
258 657 -259 0
258 -613 -657 0
258 -645 -657 0
-258 657 259 0
-258 613 645 -657 0
-259 614 646 0
259 -614 0
259 -646 0
260 655 -261 0
260 -655 -266 0
-260 -655 266 0
-260 655 261 0
261 656 -262 0
261 -656 -264 0
-261 -656 264 0
-261 656 262 0
262 657 -263 0
262 -611 -657 0
262 -643 -657 0
-262 657 263 0
-262 611 643 -657 0
-263 612 644 0
263 -612 0
263 -644 0
264 657 -265 0
264 -609 -657 0
264 -641 -657 0
-264 657 265 0
-264 609 641 -657 0
-265 610 642 0
265 -610 0
265 -642 0
266 656 -267 0
266 -656 -269 0
-266 -656 269 0
-266 656 267 0
267 657 -268 0
267 -607 -657 0
267 -639 -657 0
-267 657 268 0
-267 607 639 -657 0
-268 608 640 0
268 -608 0
268 -640 0
269 657 -270 0
269 -605 -657 0
269 -637 -657 0
-269 657 270 0
-269 605 637 -657 0
-270 606 638 0
270 -606 0
270 -638 0
-271 653 11 0
-271 11 -272 0
271 -11 0
271 -653 272 0
272 654 -273 0
272 -654 -284 0
-272 -654 284 0
-272 654 273 0
273 655 -274 0
273 -655 -279 0
-273 -655 279 0
-273 655 274 0
274 656 -275 0
274 -656 -277 0
-274 -656 277 0
-274 656 275 0
275 657 -276 0
275 -603 -657 0
275 -635 -657 0
-275 657 276 0
-275 603 635 -657 0
-276 604 636 0
276 -604 0
276 -636 0
277 -634 657 0
277 -657 -278 0
277 -602 657 0
-277 -657 278 0
-277 602 634 657 0
-278 601 633 0
278 -601 0
278 -633 0
279 656 -280 0
279 -656 -282 0
-279 -656 282 0
-279 656 280 0
280 657 -281 0
280 -599 -657 0
280 -631 -657 0
-280 657 281 0
-280 599 631 -657 0
-281 600 632 0
281 -600 0
281 -632 0
282 657 -283 0
282 -597 -657 0
282 -629 -657 0
-282 657 283 0
-282 597 629 -657 0
-283 598 630 0
283 -598 0
283 -630 0
284 655 -285 0
-284 -655 0
-284 285 0
285 656 -286 0
285 -656 -288 0
-285 -656 288 0
-285 656 286 0
286 657 -287 0
286 -595 -657 0
286 -627 -657 0
-286 657 287 0
-286 595 627 -657 0
-287 596 628 0
287 -596 0
287 -628 0
288 -594 657 0
288 -626 657 0
-288 -657 0
-288 594 626 0
289 653 290 -303 0
289 290 297 -303 0
-289 303 0
-289 -290 0
-289 -653 -297 0
-290 -655 291 293 0
-290 655 292 293 0
290 -293 0
290 655 -292 0
290 -655 -291 0
291 656 -50 0
291 -656 -88 0
-291 -656 88 0
-291 656 50 0
292 -656 -7 0
292 656 -77 0
-292 656 77 0
-292 -656 7 0
293 -654 -294 0
-293 654 0
-293 294 0
294 655 -295 0
294 -655 -296 0
-294 -655 296 0
-294 655 295 0
295 656 -99 0
295 -656 -116 0
-295 -656 116 0
-295 656 99 0
296 656 -131 0
296 -656 -149 0
-296 -656 149 0
-296 656 131 0
297 654 -298 0
297 -654 -301 0
-297 -654 301 0
-297 654 298 0
298 655 -299 0
298 -655 -300 0
-298 -655 300 0
-298 655 299 0
299 656 -162 0
299 -656 -176 0
-299 -656 176 0
-299 656 162 0
300 656 -201 0
300 -656 -227 0
-300 -656 227 0
-300 656 201 0
301 655 -302 0
-301 -655 0
-301 302 0
302 656 -240 0
-302 -656 0
-302 240 0
303 -618 107 -304 311 0
-303 -311 0
-303 618 0
-303 -107 0
-303 304 0
-304 653 -654 308 0
-304 653 654 305 0
304 -653 0
304 -654 -308 0
304 654 -305 0
305 655 -306 0
305 -655 -307 0
-305 -655 307 0
-305 655 306 0
306 656 -253 0
306 -656 -256 0
-306 -656 256 0
-306 656 253 0
307 656 -258 0
307 -656 -262 0
-307 -656 262 0
-307 656 258 0
308 655 -309 0
308 -655 -310 0
-308 -655 310 0
-308 655 309 0
309 656 -264 0
309 -656 -267 0
-309 -656 267 0
-309 656 264 0
310 656 -269 0
310 -656 -275 0
-310 -656 275 0
-310 656 269 0
-311 653 11 0
-311 11 -312 0
311 -11 0
311 -653 312 0
312 654 -313 0
312 -654 -316 0
-312 -654 316 0
-312 654 313 0
313 655 -314 0
313 -655 -315 0
-313 -655 315 0
-313 655 314 0
314 656 -277 0
314 -656 -280 0
-314 -656 280 0
-314 656 277 0
315 656 -282 0
315 -656 -286 0
-315 -656 286 0
-315 656 282 0
316 655 -317 0
-316 -655 0
-316 317 0
317 -594 656 657 0
317 -626 656 657 0
-317 -657 0
-317 -656 0
-317 594 626 0
-318 319 -396 411 0
-318 319 402 411 0
318 -319 0
318 -411 0
318 396 -402 0
319 653 320 -355 0
319 320 340 -355 0
-319 355 0
-319 -320 0
-319 -653 -340 0
-320 655 321 333 0
-320 -655 321 329 0
320 -321 0
320 -655 -329 0
320 655 -333 0
321 -654 -322 0
-321 654 0
-321 322 0
322 655 -323 0
322 -655 -326 0
-322 -655 326 0
-322 655 323 0
323 656 -324 0
323 -656 -325 0
-323 -656 325 0
-323 656 324 0
324 -657 -8 0
324 657 -81 0
-324 657 81 0
-324 -657 8 0
325 657 -38 0
325 -657 -51 0
-325 -657 51 0
-325 657 38 0
326 656 -327 0
326 -656 -328 0
-326 -656 328 0
-326 656 327 0
327 657 -60 0
327 -657 -89 0
-327 -657 89 0
-327 657 60 0
328 657 -94 0
328 -657 -100 0
-328 -657 100 0
-328 657 94 0
329 656 -330 0
329 -656 -332 0
-329 -656 332 0
-329 656 330 0
330 -657 -71 0
330 657 -331 0
-330 657 331 0
-330 -657 71 0
331 -621 9 -145 0
-331 621 0
-331 -9 0
-331 145 0
332 657 -74 0
332 -657 -78 0
-332 -657 78 0
-332 657 74 0
-333 656 334 0
-333 334 337 0
333 -334 0
333 -656 -337 0
-334 114 335 0
-334 657 -9 0
-334 -9 335 0
-334 657 114 0
334 9 -114 0
334 -657 -335 0
335 -624 11 -123 336 0
-335 -336 0
-335 624 0
-335 123 0
-335 -11 0
-336 626 20 0
336 -626 0
336 -20 0
337 657 -338 0
337 -657 -339 0
-337 -657 339 0
-337 657 338 0
338 -623 11 -130 336 0
-338 -336 0
-338 623 0
-338 130 0
-338 -11 0
339 -622 9 -138 0
-339 622 0
-339 -9 0
-339 138 0
340 654 -341 0
340 -654 -348 0
-340 -654 348 0
-340 654 341 0
341 655 -342 0
341 -655 -345 0
-341 -655 345 0
-341 655 342 0
342 656 -343 0
342 -656 -344 0
-342 -656 344 0
-342 656 343 0
343 657 -105 0
343 -657 -117 0
-343 -657 117 0
-343 657 105 0
344 657 -124 0
344 -657 -132 0
-344 -657 132 0
-344 657 124 0
345 656 -346 0
345 -656 -347 0
-345 -656 347 0
-345 656 346 0
346 657 -139 0
346 -657 -150 0
-346 -657 150 0
-346 657 139 0
347 657 -156 0
347 -657 -163 0
-347 -657 163 0
-347 657 156 0
348 655 -349 0
348 -655 -352 0
-348 -655 352 0
-348 655 349 0
349 656 -350 0
349 -656 -351 0
-349 -656 351 0
-349 656 350 0
350 657 -169 0
350 -657 -177 0
-350 -657 177 0
-350 657 169 0
351 657 -190 0
351 -657 -202 0
-351 -657 202 0
-351 657 190 0
352 656 -353 0
352 -656 -354 0
-352 -656 354 0
-352 656 353 0
353 657 -215 0
353 -657 -228 0
-353 -657 228 0
-353 657 215 0
354 657 -234 0
354 -657 -241 0
-354 -657 241 0
-354 657 234 0
355 -625 107 -356 376 0
-355 -376 0
-355 625 0
-355 -107 0
-355 356 0
-356 653 -654 366 0
-356 653 654 357 0
356 -653 0
356 -654 -366 0
356 654 -357 0
357 655 -358 0
357 -655 -362 0
-357 -655 362 0
-357 655 358 0
358 656 -359 0
358 -656 -360 0
358 656 -67 0
-358 -656 360 0
-358 656 359 67 0
359 -624 -657 0
-359 624 0
-359 657 0
360 -655 657 0
360 -657 -361 0
360 -623 657 0
-360 -657 361 0
-360 623 655 657 0
-361 622 654 0
361 -622 0
361 -654 0
362 656 -363 0
362 -656 -364 0
-362 -656 364 0
-362 656 363 0
363 -653 657 0
363 -657 -252 0
363 -621 657 0
-363 -657 252 0
-363 621 653 657 0
364 657 -365 0
364 -618 -657 0
364 -650 -657 0
-364 657 365 0
-364 618 650 -657 0
-365 619 651 0
365 -619 0
365 -651 0
366 655 -367 0
366 -655 -371 0
-366 -655 371 0
-366 655 367 0
367 656 -368 0
367 -656 -369 0
-367 -656 369 0
-367 656 368 0
368 657 -254 0
368 -616 -657 0
368 -648 -657 0
-368 657 254 0
-368 616 648 -657 0
369 657 -370 0
369 -614 -657 0
369 -646 -657 0
-369 657 370 0
-369 614 646 -657 0
-370 615 647 0
370 -615 0
370 -647 0
371 656 -372 0
371 -656 -374 0
-371 -656 374 0
-371 656 372 0
372 657 -373 0
372 -612 -657 0
372 -644 -657 0
-372 657 373 0
-372 612 644 -657 0
-373 613 645 0
373 -613 0
373 -645 0
374 657 -375 0
374 -610 -657 0
374 -642 -657 0
-374 657 375 0
-374 610 642 -657 0
-375 611 643 0
375 -611 0
375 -643 0
-376 653 11 0
-376 11 -377 0
376 -11 0
376 -653 377 0
377 654 -378 0
377 -654 -387 0
-377 -654 387 0
-377 654 378 0
378 655 -379 0
378 -655 -383 0
-378 -655 383 0
-378 655 379 0
379 656 -380 0
379 -656 -381 0
-379 -656 381 0
-379 656 380 0
380 -641 657 0
380 -657 -268 0
380 -609 657 0
-380 -657 268 0
-380 609 641 657 0
381 657 -382 0
381 -606 -657 0
381 -638 -657 0
-381 657 382 0
-381 606 638 -657 0
-382 607 639 0
382 -607 0
382 -639 0
383 656 -384 0
383 -656 -385 0
-383 -656 385 0
-383 656 384 0
384 -637 657 0
384 -657 -276 0
384 -605 657 0
-384 -657 276 0
-384 605 637 657 0
385 657 -386 0
385 -602 -657 0
385 -634 -657 0
-385 657 386 0
-385 602 634 -657 0
-386 603 635 0
386 -603 0
386 -635 0
387 655 -388 0
387 -655 -391 0
-387 -655 391 0
-387 655 388 0
388 656 -389 0
388 -656 -390 0
-388 -656 390 0
-388 656 389 0
389 -633 657 0
389 -657 -281 0
389 -601 657 0
-389 -657 281 0
-389 601 633 657 0
390 -631 657 0
390 -657 -283 0
390 -599 657 0
-390 -657 283 0
-390 599 631 657 0
391 656 -392 0
391 -656 -394 0
-391 -656 394 0
-391 656 392 0
392 657 -393 0
392 -596 -657 0
392 -628 -657 0
-392 657 393 0
-392 596 628 -657 0
-393 597 629 0
393 -597 0
393 -629 0
394 657 -395 0
394 -594 -657 0
394 -626 -657 0
-394 657 395 0
-394 594 626 -657 0
-395 595 627 0
395 -595 0
395 -627 0
396 -653 106 -400 0
396 653 106 -397 0
-396 -106 0
-396 -653 400 0
-396 653 397 0
397 654 -398 0
397 -654 -399 0
-397 -654 399 0
-397 654 398 0
398 655 -326 0
398 -655 -342 0
-398 -655 342 0
-398 655 326 0
399 655 -345 0
399 -655 -349 0
-399 -655 349 0
-399 655 345 0
400 654 -401 0
-400 -654 0
-400 401 0
401 655 -352 0
-401 -655 0
-401 352 0
402 -653 406 -410 0
402 -403 406 -410 0
-402 410 0
-402 -406 0
-402 653 403 0
403 654 -404 0
403 -654 -405 0
-403 -654 405 0
-403 654 404 0
404 655 -371 0
404 -655 -379 0
-404 -655 379 0
-404 655 371 0
405 655 -383 0
405 -655 -388 0
-405 -655 388 0
-405 655 383 0
-406 653 185 409 0
-406 185 -407 409 0
406 -409 0
406 -185 0
406 -653 407 0
407 654 -408 0
-407 -654 0
-407 408 0
408 655 -391 0
-408 -655 0
-408 391 0
-409 12 15 0
409 -12 0
409 -15 0
410 -613 18 107 0
-410 613 0
-410 -18 0
-410 -107 0
411 653 412 -415 0
411 412 414 -415 0
-411 415 0
-411 -412 0
-411 -653 -414 0
-412 -655 323 413 0
-412 655 329 413 0
412 -413 0
412 655 -329 0
412 -655 -323 0
413 -654 -398 0
-413 654 0
-413 398 0
414 654 -399 0
414 -654 -401 0
-414 -654 401 0
-414 654 399 0
415 -621 107 -416 418 0
-415 -418 0
-415 621 0
-415 -107 0
-415 416 0
-416 653 -654 404 0
-416 653 654 417 0
416 -653 0
416 -654 -404 0
416 654 -417 0
417 655 -362 0
417 -655 -367 0
-417 -655 367 0
-417 655 362 0
-418 653 11 0
-418 11 -419 0
418 -11 0
418 -653 419 0
419 654 -405 0
419 -654 -408 0
-419 -654 408 0
-419 654 405 0
-420 421 494 499 0
-420 421 -496 499 0
420 -499 0
420 -421 0
420 -494 496 0
-421 -422 453 0
-421 -107 453 0
-421 437 453 0
421 -453 0
421 107 422 -437 0
-422 654 423 429 0
-422 423 426 429 0
422 -429 0
422 -423 0
422 -654 -426 0
423 655 -424 0
423 -655 -425 0
-423 -655 425 0
-423 655 424 0
424 -656 -330 0
424 656 -337 0
-424 656 337 0
-424 -656 330 0
425 -656 -324 0
425 656 -332 0
-425 656 332 0
-425 -656 324 0
426 655 -427 0
426 -655 -428 0
-426 -655 428 0
-426 655 427 0
427 656 -325 0
427 -656 -327 0
-427 -656 327 0
-427 656 325 0
428 656 -328 0
428 -656 -343 0
-428 -656 343 0
-428 656 328 0
429 -653 -430 0
-429 653 0
-429 430 0
430 654 -431 0
430 -654 -434 0
-430 -654 434 0
-430 654 431 0
431 655 -432 0
431 -655 -433 0
-431 -655 433 0
-431 655 432 0
432 656 -344 0
432 -656 -346 0
-432 -656 346 0
-432 656 344 0
433 656 -347 0
433 -656 -350 0
-433 -656 350 0
-433 656 347 0
434 655 -435 0
434 -655 -436 0
-434 -655 436 0
-434 655 435 0
435 656 -351 0
435 -656 -353 0
-435 -656 353 0
-435 656 351 0
436 656 -354 0
-436 -656 0
-436 354 0
437 -653 -438 -446 0
437 653 -438 -439 0
-437 438 0
-437 -653 446 0
-437 653 439 0
438 -623 11 0
-438 623 0
-438 -11 0
-439 654 440 0
-439 -654 443 0
439 -654 -443 0
439 654 -440 0
-440 655 441 0
-440 -655 442 0
440 -655 -442 0
440 655 -441 0
-441 -656 363 0
-441 656 360 0
441 656 -360 0
441 -656 -363 0
442 656 -364 0
442 -656 -368 0
-442 -656 368 0
-442 656 364 0
443 655 -444 0
443 -655 -445 0
-443 -655 445 0
-443 655 444 0
444 656 -369 0
444 -656 -372 0
-444 -656 372 0
-444 656 369 0
445 656 -374 0
445 -656 -380 0
-445 -656 380 0
-445 656 374 0
446 654 -447 0
446 -654 -450 0
-446 -654 450 0
-446 654 447 0
447 655 -448 0
447 -655 -449 0
-447 -655 449 0
-447 655 448 0
448 656 -381 0
448 -656 -384 0
-448 -656 384 0
-448 656 381 0
449 656 -385 0
449 -656 -389 0
-449 -656 389 0
-449 656 385 0
450 655 -451 0
450 -655 -452 0
-450 -655 452 0
-450 655 451 0
451 656 -390 0
451 -656 -392 0
-451 -656 392 0
-451 656 390 0
452 656 -394 0
-452 -656 0
-452 394 0
-453 454 467 472 473 0
453 -473 0
453 -472 0
453 -454 0
453 -467 0
-454 -10 458 0
-454 -455 -456 458 0
-454 455 456 458 0
454 -458 0
454 10 455 -456 0
454 10 -455 456 0
455 654 -348 0
-455 -654 0
-455 348 0
456 -601 -457 0
-456 601 0
-456 457 0
457 654 -387 0
-457 -654 0
-457 387 0
458 -10 461 -462 0
458 459 461 -462 0
-458 462 0
-458 -461 0
-458 10 -459 0
459 654 -460 0
-459 -654 0
-459 460 0
460 655 -300 0
460 -655 -302 0
-460 -655 302 0
-460 655 300 0
-461 16 189 199 210 0
461 -210 0
461 -16 0
461 -199 0
461 -189 0
462 -598 26 463 -465 0
-462 465 0
-462 598 0
-462 -463 0
-462 -26 0
-463 634 637 200 464 0
463 -634 0
463 -464 0
463 -200 0
463 -637 0
-464 638 641 0
464 -638 0
464 -641 0
465 654 -466 0
-465 -654 0
-465 466 0
466 655 -315 0
466 -655 -317 0
-466 -655 317 0
-466 655 315 0
467 -606 10 -468 470 0
-467 468 0
-467 -470 0
-467 606 0
-467 -10 0
468 -654 -466 0
468 654 -469 0
-468 654 469 0
-468 -654 466 0
469 655 -310 0
469 -655 -314 0
-469 -655 314 0
-469 655 310 0
470 -654 -460 0
470 654 -471 0
-470 654 471 0
-470 -654 460 0
471 655 -296 0
471 -655 -299 0
-471 -655 299 0
-471 655 296 0
472 -605 10 414 -419 0
-472 419 0
-472 605 0
-472 -10 0
-472 -414 0
-473 475 479 0
-473 10 -474 479 0
473 -479 0
473 474 -475 0
473 -10 -475 0
474 654 -434 0
-474 -654 0
-474 434 0
475 -599 22 -476 478 0
-475 -478 0
-475 599 0
-475 476 0
-475 -22 0
476 13 186 189 -477 0
-476 477 0
-476 -13 0
-476 -189 0
-476 -186 0
477 654 -450 0
-477 -654 0
-477 450 0
-478 634 23 184 0
478 -184 0
478 -23 0
478 -634 0
-479 -484 487 0
-479 480 487 0
479 -487 0
479 -480 484 0
480 -603 10 -481 0
-480 603 0
-480 -10 0
-480 481 0
481 654 -482 0
481 -654 -483 0
-481 -654 483 0
-481 654 482 0
482 655 -449 0
482 -655 -451 0
-482 -655 451 0
-482 655 449 0
483 655 -452 0
-483 -655 0
-483 452 0
484 654 -485 0
484 -654 -486 0
-484 -654 486 0
-484 654 485 0
485 655 -433 0
485 -655 -435 0
-485 -655 435 0
-485 655 433 0
486 655 -436 0
-486 -655 0
-486 436 0
487 -608 10 -488 491 0
-487 488 0
-487 -491 0
-487 608 0
-487 -10 0
488 654 -489 0
488 -654 -490 0
-488 -654 490 0
-488 654 489 0
489 655 -266 0
489 -655 -274 0
-489 -655 274 0
-489 655 266 0
490 655 -279 0
490 -655 -285 0
-490 -655 285 0
-490 655 279 0
491 654 -492 0
491 -654 -493 0
-491 -654 493 0
-491 654 492 0
492 655 -115 0
492 -655 -148 0
-492 -655 148 0
-492 655 115 0
493 655 -175 0
493 -655 -226 0
-493 -655 226 0
-493 655 175 0
494 653 106 -495 0
494 -653 106 -455 0
-494 -106 0
-494 -653 455 0
-494 653 495 0
495 654 -322 0
495 -654 -341 0
-495 -654 341 0
-495 654 322 0
496 -617 11 107 -497 0
-496 -107 0
-496 497 0
-496 617 0
-496 -11 0
-497 -653 457 0
-497 653 498 0
497 -653 -457 0
497 653 -498 0
-498 -654 378 0
-498 654 366 0
498 654 -366 0
498 -654 -378 0
-499 500 -516 -523 532 0
-499 500 516 523 532 0
499 -532 0
499 516 -523 0
499 -500 0
499 -516 523 0
-500 501 -508 0
-500 501 514 0
-500 501 512 0
500 -501 0
500 508 -512 -514 0
501 653 502 -504 0
501 459 502 -504 0
-501 504 0
-501 -502 0
-501 -653 -459 0
-502 654 503 0
-502 -654 471 0
502 -654 -471 0
502 654 -503 0
503 655 -291 0
503 -655 -295 0
-503 -655 295 0
-503 655 291 0
504 -614 11 107 -505 0
-504 -107 0
-504 505 0
-504 614 0
-504 -11 0
-505 -653 465 0
-505 653 506 0
505 -653 -465 0
505 653 -506 0
-506 654 507 0
-506 -654 469 0
506 -654 -469 0
506 654 -507 0
507 655 -307 0
507 -655 -309 0
-507 -655 309 0
-507 655 307 0
-508 -654 485 510 0
-508 654 509 510 0
508 -510 0
508 654 -509 0
508 -654 -485 0
509 655 -428 0
509 -655 -432 0
-509 -655 432 0
-509 655 428 0
510 -653 -511 0
-510 653 0
-510 511 0
511 654 -486 0
-511 -654 0
-511 486 0
-512 653 -654 482 0
-512 653 654 513 0
512 -653 0
512 -654 -482 0
512 654 -513 0
513 655 -445 0
513 -655 -448 0
-513 -655 448 0
-513 655 445 0
514 -611 653 106 0
514 -611 106 -515 0
-514 611 0
-514 -106 0
-514 -653 515 0
515 654 -483 0
-515 -654 0
-515 483 0
-516 654 517 522 0
-516 517 521 522 0
516 -522 0
516 -517 0
516 -654 -521 0
517 -655 -69 0
517 655 -519 0
517 655 -518 0
-517 -655 69 0
-517 655 518 519 0
-518 -657 338 0
-518 657 335 0
518 657 -335 0
518 -657 -338 0
519 -656 -520 0
-519 656 0
-519 520 0
520 -657 -331 0
520 657 -339 0
-520 657 339 0
-520 -657 331 0
521 655 -6 0
521 -655 -87 0
-521 -655 87 0
-521 655 6 0
522 -653 -491 0
-522 653 0
-522 491 0
523 -624 11 107 -524 0
-523 -107 0
-523 524 0
-523 624 0
-523 -11 0
-524 -653 488 0
-524 653 525 0
524 -653 -488 0
524 653 -525 0
-525 654 526 0
-525 -654 531 0
525 -654 -531 0
525 654 -526 0
-526 -655 250 0
-526 655 527 0
526 -655 -250 0
526 655 -527 0
-527 656 528 0
-527 -656 529 0
527 -656 -529 0
527 656 -528 0
-528 624 657 0
-528 623 655 -657 0
528 -624 657 0
528 -655 -657 0
528 -623 -657 0
529 -654 657 0
529 -657 -530 0
529 -622 657 0
-529 -657 530 0
-529 622 654 657 0
-530 621 653 0
530 -621 0
530 -653 0
531 655 -255 0
531 -655 -261 0
-531 -655 261 0
-531 655 255 0
532 653 533 -534 0
532 474 533 -534 0
-532 534 0
-532 -533 0
-532 -653 -474 0
-533 -654 431 0
-533 654 426 0
533 654 -426 0
533 -654 -431 0
534 -615 11 107 -535 0
-534 -107 0
-534 535 0
-534 615 0
-534 -11 0
-535 -653 477 0
-535 653 536 0
535 -653 -477 0
535 653 -536 0
-536 -654 447 0
-536 654 443 0
536 654 -443 0
536 -654 -447 0
-537 -538 545 546 0
-537 541 545 546 0
537 -546 0
537 -545 0
537 538 -541 0
538 -653 106 -540 0
538 653 106 -539 0
-538 -106 0
-538 -653 540 0
-538 653 539 0
539 -654 -492 0
539 654 -521 0
-539 654 521 0
-539 -654 492 0
540 654 -493 0
-540 -654 0
-540 493 0
541 -616 11 107 -542 0
-541 -107 0
-541 542 0
-541 616 0
-541 -11 0
-542 653 543 0
-542 -653 544 0
542 -653 -544 0
542 653 -543 0
-543 654 531 0
-543 -654 489 0
543 -654 -489 0
543 654 -531 0
544 654 -490 0
-544 -654 0
-544 490 0
-545 -402 496 0
-545 396 -494 0
-545 -402 -494 0
-545 396 496 0
545 494 -496 0
545 -396 402 0
-546 547 548 549 558 0
546 -558 0
546 -549 0
546 -547 0
546 -548 0
547 -604 10 146 -272 0
-547 272 0
-547 604 0
-547 -10 0
-547 -146 0
548 -607 10 430 -446 0
-548 446 0
-548 607 0
-548 -10 0
-548 -430 0
549 653 550 -553 0
549 470 550 -553 0
-549 553 0
-549 -550 0
-549 -653 -470 0
-550 -655 292 552 0
-550 655 551 552 0
550 -552 0
550 655 -551 0
550 -655 -292 0
551 -656 -70 0
551 656 -520 0
-551 656 520 0
-551 -656 70 0
552 -654 -503 0
-552 654 0
-552 503 0
553 -622 107 -554 557 0
-553 -557 0
-553 622 0
-553 -107 0
-553 554 0
-554 653 -654 507 0
-554 653 654 555 0
554 -653 0
554 -654 -507 0
554 654 -555 0
555 -655 -306 0
555 655 -556 0
-555 655 556 0
-555 -655 306 0
556 -656 -251 0
556 656 -529 0
-556 656 529 0
-556 -656 251 0
-557 653 11 0
-557 11 -468 0
557 -11 0
557 -653 468 0
558 -609 10 340 -377 0
-558 377 0
-558 609 0
-558 -10 0
-558 -340 0
-559 560 567 583 584 0
559 -567 0
559 -583 0
559 -560 0
559 -584 0
560 -480 561 -563 0
560 484 561 -563 0
-560 563 0
-560 -561 0
-560 480 -484 0
-561 655 425 562 0
-561 -655 427 562 0
561 -562 0
561 655 -425 0
561 -655 -427 0
562 -654 -509 0
-562 654 0
-562 509 0
563 -619 107 -564 566 0
-563 -566 0
-563 619 0
-563 -107 0
-563 564 0
-564 653 -654 513 0
-564 653 654 565 0
564 -653 0
564 -654 -513 0
564 654 -565 0
565 655 -442 0
565 -655 -444 0
-565 -655 444 0
-565 655 442 0
-566 653 11 0
-566 11 -481 0
566 -11 0
566 -653 481 0
-567 568 570 0
-567 10 -540 570 0
567 -570 0
567 540 -568 0
567 -10 -568 0
568 184 197 -544 -569 0
-568 569 0
-568 -184 0
-568 544 0
-568 -197 0
569 -600 13 20 0
-569 600 0
-569 -13 0
-569 -20 0
-570 571 575 0
-570 573 -574 575 0
570 -575 0
570 -571 -573 0
570 -571 574 0
571 -596 10 -572 0
-571 596 0
-571 -10 0
-571 572 0
572 654 -284 0
-572 -654 0
-572 284 0
-573 14 26 218 219 0
573 -219 0
573 -14 0
573 -218 0
573 -26 0
574 654 -225 0
-574 -654 0
-574 225 0
-575 576 577 0
-575 -400 573 577 0
575 -577 0
575 -573 -576 0
575 400 -576 0
576 -597 10 -407 0
-576 597 0
-576 -10 0
-576 407 0
-577 578 580 0
-577 573 578 -582 0
577 -578 0
577 -580 582 0
577 -573 -580 0
578 -595 10 -515 579 0
-578 515 0
-578 -579 0
-578 595 0
-578 -10 0
579 -511 573 0
-579 511 0
-579 -573 0
580 -594 10 -581 0
-580 594 0
-580 -10 0
-580 581 0
581 654 -316 0
-581 -654 0
-581 316 0
582 654 -301 0
-582 -654 0
-582 301 0
583 -602 10 297 -312 0
-583 312 0
-583 602 0
-583 -10 0
-583 -297 0
-584 585 -590 0
-584 585 593 0
-584 585 592 0
584 -585 0
584 590 -592 -593 0
585 653 586 -587 0
585 574 586 -587 0
-585 587 0
-585 -586 0
-585 -653 -574 0
-586 -654 147 0
-586 654 86 0
586 654 -86 0
586 -654 -147 0
587 -653 -572 -589 0
587 653 -588 -589 0
-587 589 0
-587 -653 572 0
-587 653 588 0
588 654 -260 0
588 -654 -273 0
-588 -654 273 0
-588 654 260 0
589 -612 106 0
-589 612 0
-589 -106 0
-590 654 294 591 0
-590 -654 298 591 0
590 -591 0
590 654 -294 0
590 -654 -298 0
591 -653 -582 0
-591 653 0
-591 582 0
-592 653 -654 313 0
-592 653 654 308 0
592 -653 0
592 -654 -313 0
592 654 -308 0
593 -610 653 106 0
593 -610 106 -581 0
-593 610 0
-593 -106 0
-593 -653 581 0
-658 0
2 0

